c Reduced graph for anna_1 generated by Cyril Grelier
p edge 72 327
e 1 2
e 1 3
e 1 4
e 1 5
e 1 6
e 1 7
e 1 8
e 1 9
e 1 10
e 1 11
e 1 12
e 1 13
e 1 14
e 1 15
e 1 16
e 1 17
e 1 19
e 1 20
e 1 21
e 1 23
e 1 24
e 1 25
e 1 28
e 1 30
e 1 31
e 1 36
e 1 37
e 1 39
e 1 41
e 1 43
e 1 56
e 1 58
e 1 59
e 1 61
e 1 63
e 1 64
e 1 68
e 1 70
e 1 71
e 1 72
e 2 3
e 2 4
e 2 5
e 2 6
e 2 7
e 2 8
e 2 9
e 2 10
e 2 11
e 2 12
e 2 14
e 2 16
e 2 18
e 2 20
e 2 21
e 2 22
e 2 26
e 2 27
e 2 28
e 2 33
e 2 34
e 2 37
e 2 39
e 2 42
e 2 44
e 2 45
e 2 46
e 2 49
e 2 51
e 2 53
e 2 54
e 2 55
e 2 57
e 2 62
e 2 65
e 2 67
e 2 69
e 3 4
e 3 5
e 3 6
e 3 7
e 3 8
e 3 9
e 3 10
e 3 11
e 3 12
e 3 13
e 3 14
e 3 15
e 3 16
e 3 18
e 3 19
e 3 20
e 3 21
e 3 23
e 3 24
e 3 25
e 3 31
e 3 32
e 3 33
e 3 37
e 3 39
e 3 44
e 3 45
e 3 46
e 3 56
e 3 64
e 4 5
e 4 6
e 4 7
e 4 8
e 4 9
e 4 10
e 4 11
e 4 12
e 4 13
e 4 14
e 4 15
e 4 17
e 4 19
e 4 20
e 4 21
e 4 22
e 4 23
e 4 24
e 4 25
e 4 28
e 4 30
e 4 31
e 4 34
e 4 36
e 4 41
e 4 47
e 4 50
e 4 53
e 5 6
e 5 9
e 5 12
e 5 13
e 5 14
e 5 15
e 5 16
e 5 18
e 5 20
e 5 22
e 5 26
e 5 29
e 5 32
e 5 33
e 5 34
e 5 35
e 5 38
e 5 40
e 5 42
e 5 44
e 5 46
e 5 48
e 5 52
e 5 53
e 5 54
e 5 57
e 6 7
e 6 8
e 6 9
e 6 10
e 6 11
e 6 13
e 6 14
e 6 15
e 6 17
e 6 19
e 6 20
e 6 21
e 6 23
e 6 24
e 6 25
e 6 28
e 6 30
e 6 36
e 6 41
e 6 42
e 6 43
e 6 60
e 6 66
e 7 8
e 7 9
e 7 10
e 7 11
e 7 12
e 7 13
e 7 15
e 7 17
e 7 19
e 7 20
e 7 21
e 7 23
e 7 24
e 7 25
e 7 44
e 7 45
e 8 9
e 8 10
e 8 11
e 8 13
e 8 15
e 8 17
e 8 19
e 8 20
e 8 23
e 8 24
e 8 28
e 8 60
e 8 66
e 9 11
e 9 18
e 9 19
e 9 23
e 9 24
e 9 26
e 9 32
e 9 33
e 9 46
e 9 48
e 9 52
e 10 14
e 10 17
e 10 25
e 10 28
e 10 30
e 10 36
e 10 41
e 10 42
e 10 43
e 11 16
e 11 17
e 11 19
e 11 23
e 11 24
e 11 37
e 11 39
e 12 14
e 12 21
e 12 22
e 12 34
e 12 58
e 12 59
e 12 61
e 12 63
e 13 14
e 13 15
e 13 17
e 13 20
e 13 47
e 13 50
e 14 16
e 14 17
e 14 22
e 14 34
e 15 20
e 15 31
e 15 47
e 15 50
e 16 22
e 16 27
e 16 37
e 16 39
e 16 49
e 16 51
e 17 25
e 17 43
e 18 22
e 18 26
e 18 29
e 18 35
e 18 38
e 18 40
e 18 46
e 19 23
e 19 24
e 19 31
e 20 33
e 21 27
e 21 45
e 21 62
e 22 26
e 22 29
e 22 34
e 23 24
e 25 30
e 25 43
e 26 29
e 26 35
e 26 38
e 26 40
e 27 49
e 27 51
e 27 55
e 27 62
e 27 65
e 28 42
e 29 35
e 29 38
e 29 40
e 30 36
e 30 41
e 31 47
e 32 33
e 32 48
e 32 52
e 35 38
e 35 40
e 36 41
e 37 39
e 38 40
e 44 45
e 47 50
e 48 52
e 49 51
e 54 57
e 55 65
e 56 64
e 58 63
e 59 61
e 60 66
e 67 69
e 68 72
e 70 71
